3138.18 0
0 106 97 145 0
0 33 19 35 20 22 21 0
0 63 56 54 62 60 55 64 0
0 27 36 29 37 135 115 123 127 120 125 34 0
0 61 136 69 71 70 68 65 74 66 0
0 109 103 41 10 3 9 17 5 16 2 150 0
0 133 73 67 72 122 117 114 113 124 119 0
0 146 143 141 148 140 147 142 84 90 86 88 75 0
0 52 59 57 112 105 98 100 111 107 0
0 102 110 15 7 8 4 11 12 13 14 1 6 104 108 101 99 0
0 129 130 131 126 128 116 121 118 134 132 0
0 149 139 144 80 77 87 93 95 96 94 0
0 137 76 85 81 91 82 83 78 92 79 89 138 0
0 53 58 51 46 45 42 48 50 49 47 40 38 43 44 39 0
0 18 28 26 31 32 30 23 24 25 0